\ This file has been generated by DOcplex
\ ENCODING=ISO-8859-1
\Problem name: AMC Linear Optimization for 3ADMM-H

Minimize
 obj: x_0 + x_1 + x_2 + x_3 + y_0 + y_1 + y_2 + y_3 + u_0 + u_1
Subject To
 Constraint: 63 x_1 + 55 x_2 + 53 y_1 + 86 y_3 + 97 u_1 = 1809
 Constraint#1: 37 x_1 + 65 x_2 + 14 x_3 + 57 y_1 + 70 u_0 + 38 u_1 = 1701

Bounds
 0 <= x_0 <= 1
 0 <= x_1 <= 1
 0 <= x_2 <= 1
 0 <= x_3 <= 1
 0 <= y_0 <= 1
 0 <= y_1 <= 1
 0 <= y_2 <= 1
 0 <= y_3 <= 1

Binaries
 x_0 x_1 x_2 x_3 y_0 y_1 y_2 y_3
End
